board = [|0, -1, -1, -1, 0
         |-1, _,  _,  _, 0
         |-1, _,  _,  _, 0
         |-1, _,  _, -1, -1
         |0, -1,  _,  _, _
         |0, -1, _, _, _|];
         
vertical = [|1, 2, 9
            |1, 3, 34
            |1, 4, 4
            |4, 4, 11
            |4, 5, 3|];

horizontal = [|2, 1, 9
              |3, 1, 13
              |4, 1, 13
              |5, 2, 7
              |6, 2, 19|];